c Output_time 26.03.2020 18:13:22_+0100 1585242802458413744
c ** Program information **
c program_name                          "QBRG_debug"
c version                               "0.3.20"
c date                                  "25.3.2020"
c gid_id                                "673970833836058123f633335630c185360d632e"
c author                                "Oliver Kullmann"
c url                                   "https://github.com/OKullmann/oklibrary/blob/master/Satisfiability/Transformers/Generators/Random/QBRG.cpp"
c ** Machine information **
c machine_name                          "chyna-Lenovo-G50-70"
c bogomips                              3791.08
c ** Compilation information **
c compiler_version                      "g++ 7.5.0"
c compilation_date                      "Mar_26_2020 11:16:30"
c compilation_options                   "--std=c++17 -pedantic -fmax-errors=5 -Wall -Wextra -g -D_GLIBCXX_DEBUG"
c NDEBUG                                0
c OPTIMIZE                              0
c ** Parameters **
c command-line                          "./QBRG_debug" "e40 a40 40" "448*1,1|2-2,1|3-3,1" "" "1,t" ""
c output                                "QuBlRaGe_120_448_1585242802458222355.qdimacs"
c options                               "filtered,renamed"
c num_quantifier_blocks                 3
c  quantifier_blocks                    1:e1-40 2:a41-80 3:e81-120
c num_clause-blocks                     1
c  clause-blocks                        448 * {1-40,1,1/2} | {41-80,1,1/2} | {81-120,1,1/2}
c num_e-seeds                           30+2=32
c  e-seeds                              1 0 1 0 4 120 2 40 1 40 0 40 1 448 3 1 1 1 1 2 2 2 1 1 2 3 3 1 1 2 1 1585242802458221629
p cnf 120 448
e 1 2 3 4 5 6 7 8 9 10 11 12 13 14 15 16 17 18 19 20 21 22 23 24 25 26 27 28 29 30 31 32 33 34 35 36 37 38 39 40 0
a 41 42 43 44 45 46 47 48 49 50 51 52 53 54 55 56 57 58 59 60 61 62 63 64 65 66 67 68 69 70 71 72 73 74 75 76 77 78 79 80 0
e 81 82 83 84 85 86 87 88 89 90 91 92 93 94 95 96 97 98 99 100 101 102 103 104 105 106 107 108 109 110 111 112 113 114 115 116 117 118 119 120 0
1 -50 -81 0
39 -66 -81 0
35 77 -81 0
-29 41 81 0
-37 -47 81 0
-16 -51 81 0
21 52 81 0
7 55 81 0
-10 -58 81 0
-32 -59 81 0
-16 -65 81 0
32 66 81 0
-26 79 81 0
6 -42 -82 0
-2 57 -82 0
-7 -67 -82 0
-22 68 -82 0
25 43 82 0
28 57 82 0
32 -76 82 0
-26 79 82 0
-8 -52 -83 0
-27 -56 -83 0
-40 -66 -83 0
31 -72 -83 0
-5 -79 -83 0
12 49 83 0
4 50 83 0
-38 -51 83 0
-16 55 83 0
-39 68 83 0
37 -41 -84 0
-9 47 -84 0
13 -48 -84 0
9 -52 -84 0
18 71 -84 0
-27 77 -84 0
35 47 84 0
16 52 84 0
-30 -68 84 0
-9 -71 84 0
-1 -72 84 0
-29 74 84 0
-20 43 -85 0
18 -50 -85 0
-3 -61 -85 0
14 68 -85 0
10 43 85 0
-12 45 85 0
-16 45 85 0
-17 47 85 0
-21 47 85 0
32 -52 85 0
3 -59 85 0
-29 -61 85 0
37 -66 85 0
-8 -69 85 0
-7 -79 85 0
33 -49 -86 0
-10 -54 -86 0
-40 57 -86 0
-23 -64 -86 0
-3 73 -86 0
14 -72 86 0
26 -72 86 0
1 -74 86 0
-17 -76 86 0
7 41 -87 0
27 41 -87 0
-36 46 -87 0
4 -50 -87 0
-36 57 -87 0
-15 -58 -87 0
-18 62 -87 0
29 65 -87 0
9 67 -87 0
-36 -71 -87 0
14 -73 -87 0
-37 -56 87 0
-22 60 87 0
22 62 87 0
24 -67 87 0
35 47 -88 0
27 -66 -88 0
-19 76 -88 0
-29 43 88 0
18 -45 88 0
-15 55 88 0
13 62 88 0
-3 -71 88 0
-29 43 -89 0
16 45 -89 0
-34 50 -89 0
-5 59 -89 0
36 65 -89 0
-11 -74 -89 0
-25 74 -89 0
33 -53 89 0
9 -63 89 0
34 66 89 0
-4 -67 89 0
28 80 89 0
15 -43 -90 0
-7 54 -90 0
20 -67 -90 0
-4 -68 -90 0
5 -74 -90 0
-26 -78 -90 0
-35 -56 90 0
-23 59 90 0
-17 75 90 0
-12 80 90 0
40 -59 -91 0
6 47 91 0
-12 54 91 0
-18 64 91 0
4 -70 91 0
14 71 91 0
38 75 91 0
29 -78 91 0
-23 80 91 0
-19 -56 -92 0
-23 63 -92 0
29 -71 -92 0
13 -76 -92 0
-28 44 92 0
-10 -45 92 0
13 -47 92 0
23 54 92 0
-20 61 92 0
5 -63 92 0
35 64 92 0
14 75 92 0
12 -76 92 0
-16 -77 92 0
12 77 92 0
7 42 -93 0
-38 44 -93 0
19 45 -93 0
22 49 -93 0
2 54 -93 0
-17 64 -93 0
-38 64 -93 0
-38 66 -93 0
-21 -75 -93 0
-10 45 93 0
-39 -57 93 0
-1 -76 93 0
-16 -76 93 0
-6 77 93 0
22 -42 -94 0
-29 -45 -94 0
-33 -51 -94 0
-3 51 -94 0
-34 51 -94 0
24 -53 -94 0
31 -54 -94 0
-10 -58 -94 0
-21 -65 -94 0
16 -77 -94 0
18 -44 94 0
8 46 94 0
14 -52 94 0
7 55 94 0
-13 58 94 0
-12 -62 94 0
30 -73 94 0
-18 -49 -95 0
22 49 -95 0
28 58 -95 0
-10 60 -95 0
-34 47 95 0
-8 50 95 0
5 -53 95 0
-33 58 95 0
36 60 95 0
-39 -63 95 0
-11 -64 95 0
-15 -44 -96 0
22 62 -96 0
-26 -66 -96 0
36 41 96 0
-30 45 96 0
29 46 96 0
8 48 96 0
-5 55 96 0
-31 -56 96 0
38 65 96 0
-19 -70 96 0
38 78 96 0
15 -42 -97 0
12 -57 -97 0
-36 60 -97 0
40 -69 -97 0
-34 -71 -97 0
-25 -75 -97 0
39 -79 -97 0
27 80 -97 0
-5 45 97 0
-21 -46 97 0
13 -51 97 0
-22 57 97 0
-40 -61 97 0
-6 75 97 0
-10 54 -98 0
6 -67 -98 0
-6 67 -98 0
23 72 -98 0
35 -74 -98 0
4 -43 98 0
26 55 98 0
-11 64 98 0
29 66 98 0
40 76 98 0
18 78 98 0
-4 43 -99 0
-33 -60 -99 0
-24 62 -99 0
-38 78 -99 0
40 -79 -99 0
17 80 -99 0
-8 -51 99 0
27 -57 99 0
-11 65 99 0
-9 42 -100 0
-26 44 -100 0
-10 45 -100 0
-5 -49 -100 0
-23 -50 -100 0
14 73 -100 0
40 80 -100 0
3 45 100 0
-14 49 100 0
-16 59 100 0
-31 -69 100 0
-2 59 -101 0
-15 64 -101 0
1 -66 -101 0
-29 -73 -101 0
-25 -76 -101 0
8 41 101 0
-39 41 101 0
36 44 101 0
6 54 101 0
12 -58 101 0
-40 64 101 0
-26 -66 101 0
34 71 101 0
39 -80 101 0
-3 -53 -102 0
-15 55 -102 0
-8 -57 -102 0
40 -57 -102 0
11 -69 -102 0
-10 70 -102 0
-6 48 102 0
31 52 102 0
-40 56 102 0
-28 -58 102 0
-21 -46 -103 0
-15 -48 -103 0
-24 -54 -103 0
-37 -64 -103 0
32 -66 -103 0
29 -70 -103 0
33 -42 103 0
-38 -47 103 0
34 71 -104 0
-3 41 104 0
36 43 104 0
-18 47 104 0
17 58 104 0
-25 -62 104 0
-26 64 104 0
-37 -50 -105 0
-5 -52 -105 0
2 54 -105 0
33 -65 -105 0
15 -78 -105 0
15 42 105 0
-2 -57 105 0
36 57 105 0
-26 -61 105 0
29 66 105 0
-12 76 105 0
11 77 -106 0
33 48 106 0
-27 -60 106 0
36 -60 -107 0
40 -65 -107 0
9 -66 -107 0
-27 66 -107 0
12 80 -107 0
-31 -47 107 0
-3 -52 107 0
-40 62 107 0
16 68 107 0
4 -71 107 0
17 -73 107 0
-34 -78 107 0
-35 41 -108 0
-38 41 -108 0
-10 44 -108 0
-34 -49 -108 0
-21 50 -108 0
-10 -56 -108 0
35 59 -108 0
29 41 108 0
-8 -46 108 0
-25 -50 108 0
2 -54 108 0
-20 -56 108 0
-18 -62 108 0
-3 -63 108 0
11 63 108 0
-12 67 108 0
-40 -69 108 0
-29 73 108 0
-9 -54 -109 0
-28 -57 -109 0
9 -61 -109 0
-1 63 -109 0
18 64 -109 0
17 -70 -109 0
3 -45 109 0
-21 -45 109 0
-19 53 109 0
27 -56 109 0
-26 -61 109 0
-7 -62 109 0
35 43 -110 0
27 -45 -110 0
-21 46 -110 0
-31 46 -110 0
27 48 -110 0
15 57 -110 0
-31 58 -110 0
11 -64 -110 0
-1 -72 -110 0
-6 -53 110 0
-25 -55 110 0
5 76 110 0
-17 41 -111 0
17 41 -111 0
-16 49 -111 0
25 49 -111 0
-4 -64 -111 0
-24 59 111 0
-33 -61 111 0
-20 62 111 0
-12 -65 111 0
3 -67 111 0
40 69 111 0
37 -47 -112 0
11 52 -112 0
-37 55 -112 0
26 59 -112 0
-37 74 -112 0
32 45 112 0
27 61 112 0
29 65 112 0
36 76 112 0
6 49 -113 0
25 50 -113 0
20 57 -113 0
13 -64 -113 0
-37 65 -113 0
-6 -73 -113 0
16 -76 -113 0
-32 55 113 0
31 56 113 0
-8 -60 113 0
5 -64 113 0
39 -66 113 0
37 72 113 0
34 -41 -114 0
-13 -47 -114 0
14 59 -114 0
24 -60 -114 0
-27 63 -114 0
-7 65 -114 0
-34 76 -114 0
-30 -78 -114 0
40 52 114 0
-28 57 114 0
15 61 114 0
-11 -62 114 0
33 45 -115 0
35 -47 -115 0
8 59 -115 0
32 67 -115 0
-1 -47 115 0
-19 41 -116 0
-25 -42 -116 0
6 -44 -116 0
13 72 -116 0
-2 -77 -116 0
-22 78 -116 0
-12 -80 -116 0
-7 42 116 0
18 -46 116 0
26 -51 116 0
-21 53 116 0
-31 61 116 0
-31 -80 116 0
26 49 -117 0
30 58 -117 0
-39 65 -117 0
-7 -67 -117 0
-2 -75 -117 0
-29 75 -117 0
-2 -76 -117 0
23 77 -117 0
28 42 117 0
17 -44 117 0
-5 -46 117 0
-15 -46 117 0
4 52 117 0
-33 -65 117 0
-18 -70 117 0
-5 -76 117 0
31 -80 117 0
5 51 -118 0
-33 58 -118 0
37 -61 -118 0
-22 75 -118 0
17 77 -118 0
-3 -53 118 0
8 73 118 0
34 -78 118 0
20 48 -119 0
-11 51 -119 0
-18 -58 -119 0
21 61 -119 0
4 76 -119 0
-15 -50 119 0
-38 60 119 0
14 69 119 0
-3 52 -120 0
-14 -56 -120 0
-21 62 -120 0
18 -63 -120 0
-11 69 -120 0
-31 47 120 0
10 49 120 0
15 -52 120 0
38 -69 120 0
12 80 120 0
